HUN,8,6,43
1,65,5,50,4,36,2,28,3,16,0,22
4,23,1,95,0,63,2,93,3,52,5,78
1,61,2,99,5,44,4,80,0,26,3,81
5,15,3,100,2,38,1,57,0,96,4,4
3,46,4,67,2,35,0,41,1,18,5,63
1,12,5,34,3,83,2,38,4,10,0,80
4,18,3,76,5,57,2,70,0,12,1,91
4,92,1,90,5,26,0,35,3,17,2,22
